30
1 0 90
2 0 188
2 1 194
3 0 9
3 1 298
3 2 227
4 0 162
4 1 276
4 2 222
4 3 117
5 0 283
5 1 284
5 2 14
5 3 66
5 4 184
6 0 243
6 1 163
6 2 220
6 3 209
6 4 8
6 5 160
7 0 243
7 1 29
7 2 198
7 3 314
7 4 100
7 5 238
7 6 320
8 0 53
8 1 118
8 2 116
8 3 160
8 4 205
8 5 98
8 6 242
8 7 238
9 0 205
9 1 171
9 2 123
9 3 95
9 4 111
9 5 131
9 6 297
9 7 268
9 8 130
10 0 117
10 1 199
10 2 174
10 3 39
10 4 156
10 5 144
10 6 157
10 7 306
10 8 5
10 9 139
11 0 66
11 1 86
11 2 177
11 3 205
11 4 238
11 5 161
11 6 294
11 7 205
11 8 287
11 9 70
11 10 288
12 0 170
12 1 119
12 2 207
12 3 131
12 4 240
12 5 30
12 6 224
12 7 247
12 8 108
12 9 311
12 10 195
12 11 39
13 0 99
13 1 241
13 2 201
13 3 52
13 4 107
13 5 256
13 6 146
13 7 246
13 8 290
13 9 303
13 10 99
13 11 54
13 12 198
14 0 248
14 1 273
14 2 227
14 3 106
14 4 290
14 5 118
14 6 135
14 7 86
14 8 69
14 9 272
14 10 283
14 11 117
14 12 13
14 13 315
15 0 41
15 1 127
15 2 246
15 3 49
15 4 180
15 5 228
15 6 134
15 7 282
15 8 53
15 9 190
15 10 20
15 11 146
15 12 137
15 13 188
15 14 67
16 0 185
16 1 247
16 2 91
16 3 173
16 4 85
16 5 155
16 6 143
16 7 177
16 8 136
16 9 101
16 10 143
16 11 10
16 12 240
16 13 105
16 14 114
16 15 136
17 0 288
17 1 208
17 2 82
17 3 161
17 4 36
17 5 64
17 6 163
17 7 297
17 8 217
17 9 173
17 10 36
17 11 172
17 12 313
17 13 134
17 14 123
17 15 179
17 16 310
18 0 221
18 1 177
18 2 1
18 3 101
18 4 199
18 5 17
18 6 299
18 7 198
18 8 266
18 9 183
18 10 142
18 11 113
18 12 105
18 13 43
18 14 143
18 15 161
18 16 130
18 17 265
19 0 214
19 1 12
19 2 118
19 3 283
19 4 134
19 5 209
19 6 107
19 7 83
19 8 16
19 9 156
19 10 194
19 11 299
19 12 56
19 13 218
19 14 111
19 15 180
19 16 9
19 17 3
19 18 168
20 0 57
20 1 190
20 2 312
20 3 134
20 4 33
20 5 105
20 6 24
20 7 38
20 8 95
20 9 199
20 10 41
20 11 251
20 12 225
20 13 117
20 14 277
20 15 207
20 16 139
20 17 67
20 18 62
20 19 3
21 0 258
21 1 125
21 2 263
21 3 220
21 4 166
21 5 81
21 6 51
21 7 218
21 8 184
21 9 260
21 10 221
21 11 12
21 12 227
21 13 308
21 14 68
21 15 48
21 16 114
21 17 75
21 18 204
21 19 309
21 20 167
22 0 57
22 1 92
22 2 280
22 3 13
22 4 230
22 5 266
22 6 80
22 7 22
22 8 57
22 9 110
22 10 269
22 11 266
22 12 231
22 13 24
22 14 190
22 15 304
22 16 134
22 17 308
22 18 175
22 19 285
22 20 84
22 21 306
23 0 272
23 1 99
23 2 233
23 3 216
23 4 35
23 5 128
23 6 254
23 7 320
23 8 184
23 9 160
23 10 153
23 11 184
23 12 289
23 13 160
23 14 91
23 15 116
23 16 140
23 17 296
23 18 61
23 19 225
23 20 105
23 21 200
23 22 315
24 0 171
24 1 294
24 2 163
24 3 38
24 4 223
24 5 42
24 6 237
24 7 136
24 8 175
24 9 287
24 10 101
24 11 88
24 12 66
24 13 259
24 14 311
24 15 37
24 16 76
24 17 166
24 18 259
24 19 134
24 20 187
24 21 195
24 22 39
24 23 145
25 0 319
25 1 296
25 2 85
25 3 158
25 4 112
25 5 193
25 6 191
25 7 99
25 8 176
25 9 97
25 10 261
25 11 15
25 12 293
25 13 110
25 14 66
25 15 283
25 16 84
25 17 248
25 18 208
25 19 23
25 20 25
25 21 191
25 22 121
25 23 64
25 24 148
26 0 196
26 1 273
26 2 266
26 3 256
26 4 216
26 5 81
26 6 271
26 7 87
26 8 92
26 9 127
26 10 40
26 11 232
26 12 265
26 13 58
26 14 135
26 15 151
26 16 272
26 17 245
26 18 170
26 19 5
26 20 74
26 21 38
26 22 54
26 23 280
26 24 45
26 25 230
27 0 25
27 1 285
27 2 19
27 3 129
27 4 108
27 5 235
27 6 111
27 7 237
27 8 287
27 9 163
27 10 39
27 11 138
27 12 239
27 13 210
27 14 118
27 15 181
27 16 104
27 17 179
27 18 194
27 19 237
27 20 11
27 21 172
27 22 169
27 23 133
27 24 305
27 25 49
27 26 125
28 0 310
28 1 48
28 2 4
28 3 39
28 4 108
28 5 50
28 6 152
28 7 135
28 8 70
28 9 169
28 10 305
28 11 89
28 12 66
28 13 176
28 14 230
28 15 228
28 16 103
28 17 153
28 18 140
28 19 218
28 20 276
28 21 297
28 22 245
28 23 127
28 24 153
28 25 88
28 26 252
28 27 188
29 0 289
29 1 48
29 2 48
29 3 115
29 4 258
29 5 148
29 6 30
29 7 230
29 8 194
29 9 153
29 10 257
29 11 309
29 12 92
29 13 280
29 14 246
29 15 141
29 16 164
29 17 282
29 18 14
29 19 119
29 20 191
29 21 266
29 22 200
29 23 260
29 24 44
29 25 253
29 26 111
29 27 290
29 28 108
